







































































43 19 
9 24 
76 13 
54 22 
40 63 
0 51 
30 64 
61 68 
73 42 
55 57 
67 46 

49 74 
11 66 
75 5 
50 26 
72 35 
53 69 
7 1 
36 2 
56 44 
47 34 
52 71 
33 23 
29 28 
20 17 
18 59 
65 31 
38 16 
39 37 
58 45 
14 8 
12 
62 
10 41 
70 32 
3 
60 
21 25 
15 
4 
48 6 
27 
